c User generated cnf file
p cnf 5 19
-5 2 4 0 
1 -4 4 0 
5 -4 1 0 
2 -5 4 0 
3 -2 3 0 
-5 3 3 0 
-2 2 1 0 
-5 3 5 0 
1 -4 5 0 
4 -1 2 0 
-5 1 1 0 
4 -2 2 0 
3 3 -3 0 
-1 1 1 0 
2 -5 4 0 
1 -4 3 0 
3 1 -1 0 
2 -2 5 0 
5 -2 3 0 
